NAME : rnd87_20.tsp
TYPE : TSP
DIMENSION : 20
EDGE_WEIGHT_TYPE : EUC_2D
NODE_COORD_SECTION
0 202 479
1 672 691
2 505 166
3 866 418
4 628 382
5 398 450
6 796 589
7 452 60
8 776 19
9 140 343
10 863 839
11 923 469
12 371 587
13 855 669
14 500 282
15 240 787
16 287 644
17 734 908
18 760 430
19 639 289
